c --- [ banner ] -------------------------------------------------------------
c 
c CaDiCaL Radically Simplified CDCL SAT Solver
c Copyright (c) 2016-2021 A. Biere, M. Fleury, N. Froleyks
c 
c Version 1.5.2 a5f15211db36c3956764e18194dd5bd63bf3b5e6
c g++ (GCC) 9.3.0 -Wall -Wextra -O3 -DNDEBUG
c Fri Oct 21 01:27:37 EDT 2022 Linux gra-login3 3.10.0-1160.66.1.el7.x86_64 x86_64
c 
c --- [ limit ] --------------------------------------------------------------
c 
c setting conflict limit to 200000 conflicts (due to '200000')
c 
c --- [ parsing input ] ------------------------------------------------------
c 
c reading DIMACS file from '33.cubes3634.adj'
c opening file to read '33.cubes3634.adj'
c found 'p cnf 6160 1595475' header
c parsed 1595475 clauses in 19.76 seconds process time
c closing file '33.cubes3634.adj'
c after reading 1457566775 bytes 1390.0 MB
c 
c --- [ options ] ------------------------------------------------------------
c 
c all options are set to their default value
c 
c --- [ solving ] ------------------------------------------------------------
c 
c time measured in process time since initialization
c 
c  seconds    reductions  redundant   irredundant
c          MB     restarts       trail       variables
c            level   conflicts       glue         remaining
c 
c * 19.76 1381  0 0   0    0    0  0% 0 1595422 2375 39%
c { 20.92 1428  0 0   0    0    0  0% 0 1595422 2375 39%
c i 21.18 1434 1181 0   0    4    3 34% 2 1595422 2374 39%
c i 27.16 1515 184 0  26  171  146 26% 23 1595422 2373 39%
c i 28.20 1521 155 0  43  244  211 27% 29 1595422 2372 39%
c i 28.20 1521 155 0  44  247  212 27% 30 1595422 2371 38%
c i 28.24 1520 154 0  46  254  215 27% 31 1595422 2368 38%
c i 28.50 1521 153 0  48  261  221 27% 31 1595422 2367 38%
c i 28.61 1521 155 0  49  268  226 27% 30 1595422 2366 38%
c - 33.01 1500 143 1  55  300  248 27% 29 216922 2366 38%
c i 33.28 1500 131 1  55  336  279 28% 28 216922 2365 38%
c i 33.33 1500 127 1  55  349  289 28% 28 216922 2364 38%
c i 33.43 1500 117 1  55  390  322 28% 27 216922 2363 38%
c i 33.49 1362 114 1  55  402  333 28% 27 216922 2362 38%
c i 34.55 1362 115 1  84  548  459 28% 36 216922 2361 38%
c i 34.62 1362 114 1  87  556  466 28% 36 216922 2360 38%
c i 34.63 1362 114 1  88  559  468 28% 36 216922 2359 38%
c i 35.04 1362 117 1  95  585  491 28% 38 216922 2358 38%
c i 35.08 1362 117 1  96  598  502 28% 39 216922 2357 38%
c i 35.09 1362 117 1  97  601  504 28% 38 216922 2356 38%
c 
c  seconds     reductions  redundant   irredundant
c          MB      restarts       trail       variables
c             level   conflicts       glue         remaining
c 
c i 35.09 1362 116 1  98  602  504 28% 38 216922 2355 38%
c i 35.09 1362 116 1  98  603  504 28% 38 216922 2354 38%
c i 35.09 1362 116 1  98  604  504 28% 38 216922 2353 38%
c i 35.15 1362 115 1 103  622  518 28% 39 216922 2352 38%
c i 35.15 1362 114 1 103  623  518 28% 39 216922 2351 38%
c i 35.80 1362 110 1 118  696  579 28% 39 216922 2350 38%
c i 36.13 1362 113 1 125  735  615 28% 43 216922 2349 38%
c i 36.58 1362 111 1 135  783  661 28% 43 216922 2342 38%
c } 36.99 1362 98 1 135 1000  854 29% 41 216922 2341 38%
c [ 36.99 1362  0 1 135 1000  854  0% 0 216922 2341 38%
c O 37.03 1362 26 1 135 1002  855 22% 9 216922 2340 38%
c i 37.03 1362 26 1 135 1002  855 22% 9 216922 2277 37%
c - 37.68 1463 25 2 135 1102  840 32% 21 215652 2277 37%
c i 37.97 1463 23 2 135 1628 1160 32% 20 215652 2276 37%
c - 38.32 1463 24 3 136 2304 1131 31% 21 215649 2276 37%
c i 38.63 1463 24 3 136 2991 1557 55% 21 215649 2275 37%
c ] 38.63 1463 24 3 136 3000 1563 55% 21 215649 2275 37%
c { 38.63 1463 98 3 136 3000 1563 78% 41 215649 2275 37%
c F 38.64 1463 97 3 136 3005 1566 78% 41 215649 2275 37%
c i 38.90 1463 89 3 136 3122 1663 74% 37 215649 2274 37%
c 
c  seconds    reductions  redundant   irredundant
c          MB     restarts       trail       variables
c            level   conflicts       glue         remaining
c 
c i 38.90 1463 88 3 136 3131 1671 74% 37 215649 2273 37%
c i 38.97 1463 83 3 136 3242 1760 71% 35 215649 2272 37%
c i 38.97 1463 83 3 136 3254 1771 71% 35 215649 2271 37%
c i 38.98 1463 83 3 136 3261 1777 71% 35 215649 2270 37%
c i 39.00 1463 82 3 136 3275 1786 71% 35 215649 2269 37%
c i 39.03 1463 82 3 136 3312 1807 70% 35 215649 2268 37%
c i 39.03 1463 82 3 136 3316 1810 70% 35 215649 2267 37%
c i 39.04 1463 81 3 136 3331 1823 70% 35 215649 2266 37%
c i 39.04 1463 81 3 136 3332 1823 70% 35 215649 2265 37%
c i 39.05 1463 80 3 136 3355 1840 69% 35 215649 2264 37%
c - 39.51 1363 66 4 136 3905 1673 64% 32 215613 2264 37%
c i 39.66 1363 66 4 136 3933 1694 64% 31 215613 2263 37%
c i 39.91 1363 64 4 137 4121 1860 63% 31 215613 2262 37%
c i 40.22 1363 62 4 144 4322 2023 61% 31 215613 2260 37%
c i 40.67 1363 61 4 156 4401 2088 61% 31 215613 2259 37%
c i 41.19 1363 56 4 156 4933 2489 59% 29 215613 2258 37%
c p 47.90 1363 55 4 156 5003 6842 58% 29 215583 2193 36%
c d 48.28 1363 55 4 156 5003 6600 58% 29 215412 2192 36%
c - 49.42 1365 48 5 156 5907 2448 56% 27 215412 2192 36%
c # 49.51 1365 47 5 156 6006 2528 56% 27 215412 2192 36%
c 
c  seconds    reductions  redundant   irredundant
c          MB     restarts       trail       variables
c            level   conflicts       glue         remaining
c 
c } 51.81 1365 45 5 211 7001 3303 55% 26 215412 2192 36%
c [ 51.82 1365 24 5 211 7001 3303 55% 21 215412 2192 36%
c - 52.70 1366 23 6 212 8306 2729 52% 20 215412 2192 36%
c I 53.68 1366 23 6 213 10007 3692 51% 20 215412 2192 36%
c - 54.83 1367 28 7 214 11109 3022 50% 23 215412 2192 36%
c - 58.78 1367 33 8 216 14308 3522 49% 28 215412 2192 36%
c ] 60.03 1367 34 8 216 15003 3928 48% 29 215412 2192 36%
c { 60.03 1367 45 8 216 15003 3928 55% 26 215412 2192 36%
c p 62.10 1367 45 8 216 15003 7778 55% 26 215412 2192 36%
c B 62.29 1367 45 8 216 15008 7783 54% 26 215412 2192 36%
c - 65.95 1367 40 9 335 17909 4628 53% 25 215412 2192 36%
c s 66.29 1367 38 9 335 18785 5142 53% 24 213319 2192 36%
c v 69.87 1367 38 9 335 18785 5142 53% 24 213307 2192 36%
c t 69.98 1367 38 9 335 18785 5139 53% 24 213298 2192 36%
c e 70.83 1368 38 9 335 18785 4660 53% 24 210431 786 13%
c s 70.91 1368 38 9 335 18785 4659 53% 24 207108 786 13%
c W 74.04 1368 36 9 378 21014 6245 79% 24 207108 786 13%
c - 75.34 1368 36 10 408 21908 5357 79% 24 207108 786 13%
c - 80.85 1368 34 11 587 26253 5501 78% 23 207108 786 13%
c F 81.49 1368 33 11 591 28015 6558 78% 23 207108 786 13%
c 
c  seconds    reductions    redundant   irredundant
c          MB      restarts        trail       variables
c            level     conflicts       glue        remaining
c 
c p 87.73 1368 32 11 705 30003 9860 78% 23 207108 775 13%
c d 87.99 1368 32 11 705 30003 9661 78% 23 207076 774 13%
c - 89.91 1368 32 12 781 30991 6237 78% 23 207076 774 13%
c } 89.93 1368 32 12 781 31003 6246 78% 23 207076 774 13%
c [ 89.93 1368 34 12 781 31003 6246 140% 29 207076 774 13%
c B 93.38 1368 31 12 784 36016 9786 117% 26 207076 774 13%
c - 93.55 1368 31 13 784 36123 6685 116% 26 207076 774 13%
c - 95.67 1368 35 14 787 41650 7009 105% 30 207076 774 13%
c W 97.57 1368 36 14 788 45019 9304 101% 31 207076 774 13%
c - 98.54 1368 36 15 789 47573 7376 99% 32 207076 774 13%
c 2 99.21 1368 36 15 789 50004 9212 97% 32 207076 774 13%
c p 100.34 1368 36 15 789 50004 10723 97% 32 207076 774 13%
c s 100.94 1368 36 15 789 50952 11320 97% 32 205411 774 13%
c v 103.13 1368 36 15 789 50952 11320 97% 32 205401 774 13%
c w 103.23 1368 36 15 789 50952 11318 97% 32 205401 774 13%
c t 103.24 1368 36 15 789 50952 11315 97% 32 205401 774 13%
c s 104.13 1368 36 15 789 50952 11315 97% 32 203518 774 13%
c - 106.25 1368 36 16 789 53890 7973 95% 32 203518 774 13%
c O 106.60 1368 36 16 790 55021 8763 94% 32 203518 774 13%
c ] 107.72 1368 34 16 794 59672 11716 92% 30 203518 774 13%
c 
c  seconds     reductions     redundant   irredundant
c           MB      restarts         trail       variables
c             level     conflicts        glue        remaining
c 
c 1 107.72 1368 34 16 794 59672 11716 92% 30 203518 774 13%
c 
c --- [ writing output ] -----------------------------------------------------
c 
c writing simplified CNF to DIMACS file 'simp/33.cubes3634.adj.simp1'
c * 107.72 1368 34 16 794 59672 11716 92% 30 203518 774 13%
c opening file to write 'simp/33.cubes3634.adj.simp1'
c writing 'p cnf 6160 203518' header
c closing file 'simp/33.cubes3634.adj.simp1'
c after writing 105129557 bytes 100.3 MB
c wrote 203518 clauses in 0.75 seconds process time
c 
c --- [ writing extension ] --------------------------------------------------
c 
c writing extension stack to 'simp/33.cubes3634.adj.ext1'
c opening file to write 'simp/33.cubes3634.adj.ext1'
c closing file 'simp/33.cubes3634.adj.ext1'
c after writing 92616 bytes 0.1 MB
c wrote 4080 witnesses in 0.00 seconds process time
c 
c --- [ result ] -------------------------------------------------------------
c 
s SATISFIABLE
c 
c --- [ run-time profiling ] -------------------------------------------------
c 
c process time taken by individual solving procedures
c (percentage relative to process time for solving)
c 
c        64.53   73.37% search
c        40.63   46.20% unstable
c        23.42   26.63% simplify
c        21.78   24.77% stable
c        19.76   22.47% parse
c        12.76   14.51% probe
c         5.93    6.75% vivify
c         3.05    3.47% elim
c         1.16    1.31% lucky
c         0.95    1.08% walk
c         0.41    0.47% subsume
c         0.11    0.13% ternary
c   =================================
c        87.95   81.09% solve
c 
c last line shows process time for solving
c (percentage relative to total process time)
c 
c --- [ statistics ] ---------------------------------------------------------
c 
c chronological:              9693        16.24 %  of conflicts
c conflicts:                 59672       678.46    per second
c decisions:                121222      1378.27    per second
c eliminated:                 1406        22.82 %  of all variables
c fixed:                       828        13.44 %  of all variables
c learned:                   58499        98.03 %  per conflict
c learned_lits:           12155639       100.00 %  learned literals
c minimized:                     0         0.00 %  learned literals
c shrunken:                7848637        64.57 %  learned literals
c minishrunken:             800103         6.58 %  learned literals
c propagations:            4866712         0.06 M  per second
c reduced:                   29132        48.82 %  per conflict
c rephased:                     10      5967.20    interval
c restarts:                    794        75.15    interval
c stabilizing:                   3        64.81 %  of conflicts
c substituted:                   8         0.13 %  of all variables
c subsumed:                  26344         0.78 %  of all clauses
c strengthened:               6523         0.19 %  of all clauses
c ternary:                    2783         0.64 %  of resolved
c vivified:                     37         0.00 %  of all clauses
c walked:                        2     29836.00    interval
c weakened:                   3252         3.07    average size
c 
c seconds are measured in process time for solving
c 
c --- [ resources ] ----------------------------------------------------------
c 
c total process time since initialization:       108.47    seconds
c total real time since initialization:          127.19    seconds
c maximum resident set size of process:         1563.82    MB
c 
c --- [ shutting down ] ------------------------------------------------------
c 
c exit 10
WARNING! DIMACS header mismatch: wrong number of variables.
============================[ Problem Statistics ]=============================
|                                                                             |
|  Number of variables:          3015                                         |
|  Number of clauses:          203518                                         |
|  Parse time:                   1.33 s                                       |
|  Simplification time:          0.02 s                                       |
|                                                                             |
============================[ Search Statistics ]====================================================
| Conflicts |          ORIGINAL         |          LEARNT          | Num Sols |      SUBGRAPHS      |
|           |    Vars  Clauses Literals |    Limit  Clauses Lit/Cl |          | Canonical Noncanon. |
=====================================================================================================
|       110 |    2922   203528 22432194 |     2000      110    115 |        0 |        15        10 |
|       312 |    2922   203580 22433261 |     2000      312     76 |        0 |        40        62 |
|       555 |    2922   203598 22433839 |     2000      555     92 |        0 |        61        80 |
|      1091 |    2922   203797 22436595 |     2000     1091     83 |        0 |       107       279 |
|      1623 |    2922   203823 22437138 |     2000     1623     94 |        0 |       120       305 |
|      2387 |    2922   203828 22437201 |     3600     1387     59 |        0 |       130       310 |
|      3659 |    2922   203961 22439529 |     3600     2659     81 |        0 |       190       443 |
|      5437 |    2922   204031 22441649 |     5002     2639     63 |        0 |       207       513 |
|      9283 |    2922   205315 22458530 |     6303     3986     46 |        0 |       450      1797 |
|     14072 |    2922   206260 22473422 |     7556     5628     54 |        0 |       691      2742 |
|     20049 |    2922   206471 22476782 |     8783     7832     64 |        0 |       763      2953 |
|     29162 |    2922   206935 22482449 |    11213     7575     52 |        0 |       909      3417 |
|     42684 |    2922   207483 22490390 |    13608     9292     52 |        0 |      1041      3965 |
|     63581 |    2922   208919 22510898 |    16012    15993     71 |        0 |      1468      5401 |
|     95195 |    2922   211341 22552568 |    20817    12012     43 |        1 |      2100      7822 |
|    142026 |    2922   214383 22595736 |    25611    13637     31 |        2 |      2805     10863 |
|    209870 |    2922   216543 22626663 |    30424    26694     67 |        3 |      3490     13022 |
|    308792 |    2922   216939 22634178 |    37613    25405     51 |        3 |      3585     13418 |
|    458602 |    2922   218960 22674042 |    46021    31023     55 |        4 |      4608     15438 |
|    683390 |    2922   222065 22728512 |    55615    55005     74 |       12 |      5611     18535 |
|   1018354 |    2922   224504 22778139 |    68819    51173     59 |       24 |      6364     20962 |
|   1519124 |    2922   226486 22823597 |    84408    57932     49 |       30 |      7039     22938 |
|   2285451 |    2922   244631 23155369 |   103621    77072     57 |       31 |     11041     41082 |
|   3421111 |    2922   258017 23474493 |   126427   125938     70 |       34 |     16665     54465 |
|   5145286 |    2917   288341 24143291 |   141350    75036     52 |       35 |     27834     95228 |
|   7687837 |    2899   302824 24409327 |   191209   121246     49 |       37 |     32878    112661 |
=====================================================================================================
Number of solutions   : 37
Canonical subgraphs   : 33752          (12 /sec)
          order  3    : 1              (166667 /sec)
          order  4    : 1              (500000 /sec)
          order  5    : 1              (200000 /sec)
          order  6    : 1              (52632 /sec)
          order  7    : 1              (8264 /sec)
          order  8    : 2              (1363 /sec)
          order  9    : 6              (315 /sec)
          order 10    : 15             (69 /sec)
          order 11    : 49             (43 /sec)
          order 12    : 222            (27 /sec)
          order 13    : 1423           (32 /sec)
          order 14    : 2312           (21 /sec)
          order 15    : 9326           (15 /sec)
          order 16    : 11384          (11 /sec)
          order 17    : 5839           (9 /sec)
          order 18    : 2148           (9 /sec)
          order 19    : 631            (7 /sec)
          order 20    : 199            (7 /sec)
          order 21    : 154            (7 /sec)
          order 22    : 37             (1 /sec)
Noncanonical subgraphs: 115677         (115 /sec)
          order  3    : 0              (-nan /sec)
          order  4    : 0              (-nan /sec)
          order  5    : 0              (-nan /sec)
          order  6    : 0              (-nan /sec)
          order  7    : 0              (-nan /sec)
          order  8    : 0              (-nan /sec)
          order  9    : 0              (-nan /sec)
          order 10    : 0              (-nan /sec)
          order 11    : 0              (-nan /sec)
          order 12    : 0              (-nan /sec)
          order 13    : 3848           (8644 /sec)
          order 14    : 29342          (1239 /sec)
          order 15    : 15446          (1010 /sec)
          order 16    : 8020           (361 /sec)
          order 17    : 57896          (64 /sec)
          order 18    : 829            (52 /sec)
          order 19    : 164            (33 /sec)
          order 20    : 0              (-nan /sec)
          order 21    : 0              (-nan /sec)
Canonicity checking   : 2904.78 s
Noncanonicity checking: 1006.42 s
Total canonicity time : 3911.2 s
database reductions   : 167
restarts              : 14160
conflicts             : 8666808        (1200 /sec)
decisions             : 10914020       (0.00 % random) (1511 /sec)
propagations          : 355539740      (49232 /sec)
conflict literals     : 937688033      (57.48 % deleted)
actual reward         : 0.316391
Memory used           : 397.00 MB
CPU time              : 7221.68 s

UNSATISFIABLE
